c Random generated cnf formula, satisfiable: false
p cnf 10 50
-8 -5 -4 0
2 9 10 0
9 -5 -8 0
-3 -4 -8 0
4 3 -5 0
10 7 -3 0
-2 -7 -8 0
5 7 10 0
-8 -4 9 0
-2 -3 8 0
5 -8 4 0
-1 6 -5 0
-1 8 -6 0
-10 -1 9 0
2 -7 9 0
2 9 -4 0
4 -3 -8 0
-3 6 5 0
-6 10 -2 0
2 -7 1 0
-10 -1 5 0
6 -3 10 0
8 -5 6 0
8 -9 4 0
9 8 10 0
-2 -1 3 0
2 6 -8 0
-7 2 -5 0
-7 -5 3 0
4 -3 -8 0
-6 7 -8 0
-9 6 4 0
2 -9 1 0
5 1 -3 0
-8 6 1 0
-1 9 -8 0
-2 -10 6 0
3 2 -1 0
-10 6 -9 0
-2 9 -5 0
1 -4 -6 0
4 3 5 0
3 7 9 0
1 10 6 0
-10 6 -4 0
-5 -4 -1 0
7 -5 -8 0
2 10 8 0
1 -6 8 0
6 -8 -4 0
